32	0

0	3	4	3	2
3	1	5
6	2	6	7
10	2	6	11
1	2	6	7
8	2	8	9
10	3	8	9	11
7	2	12	14
2	1	10
10	2	12	14
10	2	12	14
2	3	13	15	17
7	2	16	18
6	2	15	17
3	2	16	18
6	1	21
6	2	19	22
4	2	19	22
1	2	20	21
4	3	24	25	26
2	3	23	24	26
10	2	24	25
8	1	25
3	2	27	29
7	2	27	29
9	2	27	29
4	1	28
7	2	30	31
10	2	30	31
1	1	32
2	1	32
0	0
